c read Graph
c width = 9
c time = 245 ms
c width = 4
c time = 333 ms
c width = 4
c time = 3953 ms
s td 16 5 20
b 1 1 2 6
b 2 2 3 6 7
b 3 3 4 9 10
b 4 3 6 7 11
b 5 3 9 10 15
b 6 11 12 17 18
b 7 14 15 18 19
b 8 3 7 8 11 12
b 9 3 8 11 12 18
b 10 3 8 12 13 18
b 11 3 8 9 13 18
b 12 3 9 13 15 18
b 13 9 13 14 15 18
b 14 15 19 20
b 15 11 16 17
b 16 4 5 10
1 2
2 4
3 16
3 5
4 8
5 12
6 15
6 9
7 14
7 13
8 9
9 10
10 11
11 12
12 13
